0 039
1 051
2 071
3 053
4 029
5 041
6 025
7 095
8 105
9 055
10 043
11 119
12 035
13 027
14 057
15 073
16 061
17 037
18 113
19 059
20 013
21 069
22 143
23 145
24 049
25 067
26 017
27 009
28 083
29 045
30 001
31 085
32 121
33 149
34 015
35 093
36 091
37 003
38 005
39 099
40 023
41 023
42 097
43 101
44 065
45 087
46 115
47 063
48 167
49 111
50 109
51 033
52 033
53 131
54 127
55 107
56 129
57 133
58 193
59 075
60 011
61 125
62 123
63 047
64 199
65 135
66 157
67 139
68 141
69 159
70 153
71 089
72 081
73 155
74 103
75 007
76 019
77 079
78 151
79 173
80 175
81 147
82 171
83 177
84 117
85 187
86 179
87 185
88 169
89 161
90 137
91 165
92 191
93 077
94 195
95 163
96 183
97 181
98 189
99 197
